flow=[(1,6,1)(5,0,0)(5,1,0)(5,2,0)(5,4,0)(5,6,8)(5,7,0)(5,8,0)(5,9,0)(5,10,0)(5,11,0)(5,12,0)(5,13,0)(6,1,5)(6,5,1)(6,7,2)(6,10,2)(6,11,18)(8,9,2)(10,6,5)(11,6,10)(11,10,4)(11,12,14)(12,5,2)(12,6,0)(12,7,0)(12,10,0)(12,13,0)];
